language Essence 1.3

letting blksize_delta be function(1 --> 4, 2 --> 4, 3 --> 4, 4 --> 4, 5 --> 4, 6 --> 4, 7 --> 4)
letting maxcars be function(1 --> 8, 2 --> 10, 3 --> 9, 4 --> 10, 5 --> 10, 6 --> 10, 7 --> 10)
letting n_cars be 127
letting n_classes be 2
letting n_options be 7
letting quantity be function(1 --> 64, 2 --> 63)
letting usage be relation((1, 1), (1, 2), (1, 3), (1, 4), (1, 5), (1, 6), (2, 7))
$ Visualisation for usage
$ 1 1
$ 1 2
$ 1 3
$ 1 4
$ 1 5
$ 1 6
$ 2 7

